c 7_4_checker_5cl.cnf
c
c field = 7
c formula set type = 4_checker_5cl
c
p cnf 5 6
42 
72 
102 
132 
-162 
43 
73 
103 
133 
-163 
44 
76 
108 
140 
-172 
45 
77 
109 
141 
-173 
40 
68 
96 
124 
-152 
41 
69 
97 
125 
-153 
